# Example page reference trace
# These are optional comment lines
1 25
0 45
0 18
1 17
1 45
# line 8 is a comment
0 20
1 20
0 45
0 63
1 0
1 9
0 10
0 25
# end of file 